
List of user-set options:

                                    Name   Value                used
                           compl_inf_tol = 1                     yes
                         constr_viol_tol = 1                     yes
                            dual_inf_tol = 1000                  yes
                           linear_solver = ma97                  yes
                              ma86_small = 1e-30                  no
                                  ma86_u = 0.0001                 no
                              ma97_order = best                  yes
                              ma97_small = 1e-30                 yes
                            ma97_switch1 = at_start              yes
                            ma97_switch2 = od_hd_reuse           yes
                                  ma97_u = 1e-06                 yes
                               ma97_umax = 0.5                   yes
                                max_iter = 1000                  yes
                    max_refinement_steps = 20                    yes
                    min_refinement_steps = 5                     yes
                                 mu_init = 1e-06                 yes
           mu_superlinear_decrease_power = 1.25                  yes
                   nlp_scaling_min_value = 1e-08                 yes
                        option_file_name = Preset_Case_854_pf.opt  yes
                             output_file = ./tmp/Preset_Case_854_pf.output  yes
                      print_user_options = yes                   yes
                                     tol = 0.0001                yes
                   warm_start_bound_frac = 1e-20                 yes
                   warm_start_bound_push = 1e-20                 yes
                   warm_start_init_point = yes                   yes
              warm_start_mult_bound_push = 1e-20                 yes
                warm_start_mult_init_max = 1e+40                 yes
             warm_start_slack_bound_frac = 1e-20                 yes
             warm_start_slack_bound_push = 1e-20                 yes

******************************************************************************
This program contains Ipopt, a library for large-scale nonlinear optimization.
 Ipopt is released as open source code under the Eclipse Public License (EPL).
         For more information visit http://projects.coin-or.org/Ipopt
******************************************************************************

This is Ipopt version 3.12.10, running with linear solver ma97.

Number of nonzeros in equality constraint Jacobian...:   103066
Number of nonzeros in inequality constraint Jacobian.:      145
Number of nonzeros in Lagrangian Hessian.............:    39976

Total number of variables............................:    29160
                     variables with only lower bounds:    11314
                variables with lower and upper bounds:    14309
                     variables with only upper bounds:        0
Total number of equality constraints.................:    29077
Total number of inequality constraints...............:       21
        inequality constraints with only lower bounds:        0
   inequality constraints with lower and upper bounds:        0
        inequality constraints with only upper bounds:       21

iter    objective    inf_pr   inf_du lg(mu)  ||d||  lg(rg) alpha_du alpha_pr  ls
   0 -9.8476995e+03 1.21e+00 1.45e+04  -6.0 0.00e+00    -  0.00e+00 0.00e+00   0
   1 -9.8471121e+03 1.12e+00 1.34e+04  -6.0 9.73e+02    -  1.00e+00 7.55e-02h  4
   2 -9.8465981e+03 1.04e+00 1.25e+04  -6.0 9.14e+02    -  1.00e+00 7.00e-02h  4
   3 -9.8461483e+03 9.72e-01 1.17e+04  -6.0 8.63e+02    -  1.00e+00 6.47e-02h  4
   4 -9.8453612e+03 8.56e-01 1.03e+04  -6.0 8.18e+02    -  1.00e+00 1.19e-01h  3
   5 -9.8447709e+03 7.72e-01 9.25e+03  -6.0 7.37e+02    -  1.00e+00 9.88e-02h  3
   6 -9.8438855e+03 7.35e-01 7.75e+03  -6.0 6.76e+02    -  1.00e+00 1.61e-01h  2
   7 -9.8430000e+03 8.79e-01 6.30e+03  -6.0 5.83e+02    -  1.00e+00 1.86e-01h  1
   8r-9.8430000e+03 8.79e-01 1.00e+03  -0.2 0.00e+00    -  0.00e+00 1.12e-07R  2
   9r-9.8430113e+03 8.75e-01 1.00e+03  -0.2 3.23e+05    -  9.57e-06 4.29e-06f  1
iter    objective    inf_pr   inf_du lg(mu)  ||d||  lg(rg) alpha_du alpha_pr  ls
  10r-9.8430109e+03 8.48e-01 1.00e+03  -0.2 3.67e+03    -  1.24e-05 3.07e-05f  1
  11r-9.8430103e+03 8.09e-01 2.70e+03  -0.2 2.81e+03    -  1.79e-04 4.74e-05f  1
  12r-9.8430048e+03 5.43e-01 1.00e+03  -0.2 2.50e+03    -  9.42e-05 3.95e-04f  1
  13 -9.8430048e+03 5.43e-01 2.46e+05  -6.0 2.87e+00    -  1.05e-02 2.96e-04h  1
  14 -9.8429864e+03 5.40e-01 3.90e+06  -6.0 4.89e+02    -  2.99e-04 4.62e-03h  1
  15 -9.8429864e+03 5.40e-01 3.90e+06  -6.0 1.05e+03    -  1.45e-04 2.75e-07h  2
  16 -9.8429864e+03 5.40e-01 3.90e+06  -6.0 1.23e+03    -  7.29e-06 6.73e-06h  1
  17 -9.8429865e+03 5.40e-01 3.90e+06  -6.0 1.23e+03    -  2.16e-05 6.70e-06h  1
  18 -9.8429866e+03 5.40e-01 3.90e+06  -6.0 1.12e+04    -  4.53e-07 2.11e-07h  1
  19 -9.8429868e+03 5.40e-01 4.00e+06  -6.0 2.88e+04    -  1.33e-06 1.72e-07h  1
iter    objective    inf_pr   inf_du lg(mu)  ||d||  lg(rg) alpha_du alpha_pr  ls
  20 -9.8429878e+03 5.40e-01 1.54e+07  -6.0 8.72e+04    -  8.21e-07 2.43e-07f  1
In iteration 20, 1 Slack too small, adjusting variable bound
  21 -9.8429892e+03 5.40e-01 5.20e+07  -6.0 1.49e+05    -  3.58e-07 1.31e-07f  1
  22 -9.8429894e+03 5.40e-01 8.48e+07  -6.0 2.17e+05   0.0 5.67e-08 3.89e-08f  1
  23r-9.8429894e+03 5.40e-01 1.00e+03  -0.4 0.00e+00    -  0.00e+00 3.68e-09R  2
  24r-9.8429894e+03 5.40e-01 1.11e+03  -0.4 6.28e+03    -  9.82e-05 2.33e-07f  1
  25r-9.8429883e+03 5.02e-01 1.05e+03  -0.4 2.68e+03    -  2.57e-05 7.73e-05f  1
  26r-9.8429835e+03 4.20e-01 1.00e+03  -0.4 2.19e+03    -  2.84e-04 3.49e-04f  1
  27 -9.8429835e+03 4.20e-01 6.30e+02  -6.0 3.53e+00    -  9.52e-02 1.51e-04h  1
  28r-9.8429835e+03 4.20e-01 9.99e+02  -0.6 0.00e+00    -  0.00e+00 5.41e-09R  2
  29r-9.8429834e+03 4.19e-01 6.03e+03  -0.6 1.57e+03    -  1.63e-03 1.92e-06f  1
iter    objective    inf_pr   inf_du lg(mu)  ||d||  lg(rg) alpha_du alpha_pr  ls
  30r-9.8429529e+03 3.90e-01 1.13e+04  -0.6 7.19e+02    -  4.69e-03 2.63e-03f  1
  31 -9.8429529e+03 3.90e-01 5.56e+01  -6.0 5.37e+00    -  1.93e-01 8.72e-04h  1
  32r-9.8429529e+03 3.90e-01 9.99e+02  -1.4 0.00e+00    -  0.00e+00 1.84e-08R  2
  33r-9.8429529e+03 3.90e-01 7.94e+03  -1.4 1.51e+02    -  2.22e-02 3.06e-05f  1
  34r-9.8429144e+03 3.43e-01 9.67e+03  -1.4 9.85e+01    -  5.23e-02 2.23e-02f  1
  35 -9.8429160e+03 3.37e-01 4.95e+01  -6.0 6.98e+00    -  2.07e-01 1.76e-02h  1
  36r-9.8429160e+03 3.37e-01 9.99e+02  -2.3 0.00e+00    -  0.00e+00 1.21e-08R  2
  37r-9.8429159e+03 3.29e-01 9.98e+02  -2.3 9.24e+01    -  2.43e-03 6.96e-04f  1
  38 -9.8429363e+03 2.57e-01 7.22e+05  -6.0 6.86e+00    -  2.32e-01 2.17e-01h  1
  39r-9.8429363e+03 2.57e-01 9.99e+02  -2.2 0.00e+00    -  0.00e+00 1.74e-07R  2
iter    objective    inf_pr   inf_du lg(mu)  ||d||  lg(rg) alpha_du alpha_pr  ls
  40r-9.8429359e+03 2.55e-01 9.99e+02  -2.2 4.42e+03    -  1.27e-04 3.41e-04f  1
  41 -9.8429595e+03 1.88e-01 3.72e+06  -6.0 5.48e+00    -  2.14e-01 3.33e-01f  1
  42 -9.8429738e+03 1.48e-01 3.96e+06  -6.0 3.70e+00    -  3.33e-01 2.71e-01f  1
  43 -9.8429966e+03 1.20e-01 3.12e+06  -6.0 9.02e+00    -  8.12e-02 2.14e-01h  1
  44 -9.8429962e+03 1.20e-01 3.11e+06  -6.0 5.61e+02    -  6.09e-01 9.43e-05h  1
  45 -9.8429744e+03 1.19e-01 3.10e+06  -6.0 5.64e+02    -  7.53e-01 4.74e-03h  1
  46r-9.8429744e+03 1.19e-01 1.00e+03  -1.5 0.00e+00    -  0.00e+00 1.24e-08R  2
  47r-9.8429749e+03 1.19e-01 9.59e+03  -1.5 7.20e+02    -  1.70e-02 1.27e-04f  1
  48 -9.8429749e+03 1.19e-01 4.15e+07  -6.0 5.79e+00    -  5.61e-01 1.96e-06h  2
  49 -9.8429747e+03 1.19e-01 1.56e+09  -6.0 4.81e+02    -  3.20e-06 1.21e-04h  1
iter    objective    inf_pr   inf_du lg(mu)  ||d||  lg(rg) alpha_du alpha_pr  ls
  50 -9.8429747e+03 1.19e-01 1.56e+09  -6.0 4.71e+02    -  2.76e-04 7.07e-05h  1
  51 -9.8429749e+03 1.19e-01 1.56e+09  -6.0 6.58e+03    -  2.00e-06 1.00e-06f  1
  52 -9.8429753e+03 1.19e-01 1.56e+09  -6.0 1.02e+05    -  2.54e-07 1.28e-07f  1
  53 -9.8429760e+03 1.19e-01 1.56e+09  -6.0 2.77e+05    -  2.63e-07 8.63e-08f  1
  54 -9.8429601e+03 1.19e-01 1.56e+09  -6.0 3.45e+06    -  2.81e-08 6.32e-07h  7
  55r-9.8429601e+03 1.19e-01 1.00e+03  -1.5 0.00e+00    -  0.00e+00 3.28e-07R  8
  56r-9.8429599e+03 1.19e-01 9.82e+03  -1.5 1.75e+02    -  1.97e-02 8.92e-05f  1
  57r-9.8429326e+03 1.25e-01 1.34e+04  -1.5 1.09e+02    -  3.35e-02 1.73e-02f  1
  58 -9.8429327e+03 1.25e-01 1.26e+03  -6.0 3.90e+00    -  6.45e-01 5.11e-04h  1
  59r-9.8429327e+03 1.25e-01 1.00e+03  -2.5 0.00e+00    -  0.00e+00 6.36e-08R  2
iter    objective    inf_pr   inf_du lg(mu)  ||d||  lg(rg) alpha_du alpha_pr  ls
  60r-9.8429327e+03 1.24e-01 3.61e+03  -2.5 1.45e+02    -  1.13e-01 4.94e-04f  1
  61 -9.8429327e+03 1.24e-01 5.48e+01  -6.0 3.91e+00    -  3.27e-02 3.29e-07h  3
  62 -9.8429326e+03 1.24e-01 1.28e+04  -6.0 5.23e+02    -  6.24e-01 1.60e-05h  1
In iteration 62, 1 Slack too small, adjusting variable bound
  63 -9.8429326e+03 1.24e-01 3.65e+05  -6.0 3.52e+03    -  2.82e-05 3.20e-09h  1
  64r-9.8429326e+03 1.24e-01 1.00e+03  -2.8 0.00e+00    -  0.00e+00 2.79e-07R  3
  65r-9.8429325e+03 1.20e-01 9.96e+02  -2.8 2.84e+02    -  5.09e-02 1.00e-03f  1
  66r-9.8429325e+03 1.20e-01 9.99e+02  -3.0 0.00e+00    -  0.00e+00 2.93e-07R  4
  67r-9.8429325e+03 1.18e-01 9.98e+02  -3.0 8.45e+01    -  3.15e-02 4.27e-04f  1
  68r-9.8429317e+03 8.21e-02 1.61e+03  -3.0 8.42e+01    -  9.21e-02 2.07e-02f  1
  69 -9.8429319e+03 8.20e-02 1.14e+03  -6.0 2.84e+01    -  6.66e-01 6.50e-04h  1
iter    objective    inf_pr   inf_du lg(mu)  ||d||  lg(rg) alpha_du alpha_pr  ls
  70 -9.8429317e+03 8.20e-02 2.53e+05  -6.0 5.41e+02    -  8.67e-02 3.86e-05h  1
  71r-9.8429317e+03 8.20e-02 1.00e+03  -3.1 0.00e+00    -  0.00e+00 3.42e-07R  2
  72r-9.8429317e+03 7.93e-02 3.14e+03  -3.1 4.08e+01    -  1.72e-01 1.00e-03f  1
  73r-9.8429317e+03 7.93e-02 9.99e+02  -3.9 0.00e+00    -  0.00e+00 3.58e-07R  2
  74r-9.8429317e+03 6.25e-02 9.98e+02  -3.9 1.15e+02    -  1.69e-02 1.00e-03f  1
  75 -9.8429317e+03 6.25e-02 1.45e+03  -6.0 3.96e+00    -  6.59e-01 4.55e-04h  1
  76r-9.8429317e+03 6.25e-02 1.00e+03  -4.4 0.00e+00    -  0.00e+00 1.70e-09R  2
  77r-9.8429844e+03 2.87e-02 9.98e+02  -4.4 4.68e+03    -  6.91e-03 1.37e-03f  1
  78r-9.8429844e+03 1.72e-02 9.91e+02  -4.4 1.37e+02    -  1.38e-02 7.04e-03f  1
  79r-9.8429844e+03 1.09e-02 9.80e+02  -4.4 1.02e+02    -  5.57e-02 1.14e-02f  1
iter    objective    inf_pr   inf_du lg(mu)  ||d||  lg(rg) alpha_du alpha_pr  ls
  80r-9.8429844e+03 8.41e-03 9.61e+02  -4.4 5.34e+01    -  3.99e-02 1.96e-02f  1
  81r-9.8429844e+03 6.05e-03 2.14e+03  -4.4 3.48e+01    -  1.83e-01 3.47e-02f  1
  82r-9.8429844e+03 5.95e-03 2.61e+03  -4.4 2.09e+01    -  8.03e-02 4.97e-03f  1
  83r-9.8429844e+03 5.78e-03 3.52e+03  -4.4 2.70e+01    -  1.75e-01 1.00e-02f  1
  84r-9.8429842e+03 5.12e-03 3.59e+03  -4.4 2.65e+01    -  1.23e-01 5.86e-02f  1
  85r-9.8429842e+03 5.01e-03 3.72e+03  -4.4 3.48e+01    -  5.88e-02 1.19e-02f  1
  86r-9.8429841e+03 4.90e-03 4.03e+03  -4.4 3.66e+01    -  1.12e-01 1.28e-02f  1
  87r-9.8429841e+03 4.83e-03 4.85e+03  -4.4 3.95e+01    -  2.62e-01 9.14e-03f  1
  88r-9.8429840e+03 4.81e-03 6.15e+03  -4.4 3.38e+01    -  5.14e-01 3.25e-03f  1
  89r-9.8429823e+03 4.36e-03 5.77e+03  -4.4 9.57e+00    -  2.78e-01 9.45e-02f  1
iter    objective    inf_pr   inf_du lg(mu)  ||d||  lg(rg) alpha_du alpha_pr  ls
  90r-9.8429784e+03 1.09e-02 5.30e+03  -4.4 5.31e+00    -  6.90e-01 1.40e-01f  1
  91r-9.8429538e+03 8.71e-03 3.66e+03  -4.4 4.24e+00    -  5.75e-01 2.19e-01f  1
  92r-9.8427855e+03 1.98e-02 3.50e+03  -4.4 4.33e+00    -  2.97e-01 4.22e-01f  1
  93r-9.8426590e+03 2.40e-02 1.96e+03  -4.4 3.07e+00    -  5.97e-01 3.09e-01f  1
  94r-9.8424925e+03 2.15e-02 1.26e+03  -4.4 2.81e+00    -  3.30e-01 1.63e-01f  1
  95r-9.8416068e+03 8.43e-03 4.66e+02  -4.4 5.85e+00    -  5.93e-01 6.37e-01f  1
  96r-9.8402979e+03 3.57e-03 2.16e+02  -4.4 2.02e+01    -  5.20e-01 5.78e-01f  1
  97r-9.8388761e+03 2.77e-04 2.55e-01  -4.4 3.67e+00    -  1.00e+00 1.00e+00f  1
  98r-9.8387156e+03 2.52e-05 1.88e-03  -4.4 1.11e+00    -  1.00e+00 1.00e+00h  1
  99 -9.8387343e+03 2.51e-05 4.58e+01  -6.0 1.30e+02    -  2.46e-02 3.53e-03f  1
iter    objective    inf_pr   inf_du lg(mu)  ||d||  lg(rg) alpha_du alpha_pr  ls
 100 -9.8387343e+03 2.51e-05 6.51e+04  -6.0 7.67e+02    -  5.34e-01 1.15e-06f 13
 101 -9.8387266e+03 3.18e-04 6.47e+04  -6.0 7.06e+02    -  5.11e-03 5.11e-03s 15
 102r-9.8387266e+03 3.18e-04 1.00e+03  -3.6 0.00e+00    -  0.00e+00 0.00e+00R  1
 103r-9.8387337e+03 2.32e-05 4.04e+03  -3.6 8.59e+02    -  7.99e-02 1.00e-03f  1
 104r-9.8387317e+03 1.79e-04 6.01e+03  -3.6 1.26e+01    -  1.46e-01 9.40e-02f  1
 105r-9.8387239e+03 1.26e-03 2.21e+04  -3.6 1.01e+01    -  7.59e-01 2.97e-01f  1
 106r-9.8386127e+03 4.80e-03 1.82e+03  -3.6 6.36e+00    -  7.40e-01 1.00e+00f  1
 107r-9.8382059e+03 2.61e-03 4.80e+01  -3.6 2.54e+00    -  9.23e-01 1.00e+00h  1
 108r-9.8354027e+03 1.99e-02 1.53e+01  -3.6 2.87e+01    -  9.98e-01 1.00e+00h  1
 109r-9.8345646e+03 2.59e-03 2.31e-01  -3.6 1.04e+01    -  1.00e+00 1.00e+00h  1
iter    objective    inf_pr   inf_du lg(mu)  ||d||  lg(rg) alpha_du alpha_pr  ls
 110r-9.8345832e+03 3.18e-04 3.61e-02  -3.6 3.63e+00    -  1.00e+00 1.00e+00h  1
 111r-9.8345797e+03 3.83e-05 6.10e-04  -3.6 4.64e-01    -  1.00e+00 1.00e+00h  1
 112r-9.8352464e+03 2.76e-03 1.82e+04  -5.0 1.35e+01    -  8.71e-01 2.58e-01f  1
 113r-9.8355905e+03 1.54e-02 6.48e+03  -5.0 2.50e+01    -  3.18e-01 4.80e-01f  1
 114r-9.8359362e+03 7.99e-03 2.82e+03  -5.0 2.72e+01    -  7.38e-01 6.79e-01f  1
 115r-9.8362786e+03 3.11e-03 2.36e+03  -5.0 7.90e+00    -  1.00e+00 6.13e-01f  1
 116r-9.8367415e+03 1.94e-04 4.04e-01  -5.0 2.84e+00    -  1.00e+00 1.00e+00f  1
 117r-9.8367791e+03 4.33e-06 6.40e-03  -5.0 4.58e-01    -  1.00e+00 1.00e+00h  1
 118 -9.8367955e+03 6.80e-06 1.02e+02  -6.0 2.60e+02    -  7.42e-03 1.96e-03f  1
 119 -9.8367965e+03 1.52e-04 4.57e+04  -6.0 7.15e+02    -  7.23e-01 3.43e-03f  1
iter    objective    inf_pr   inf_du lg(mu)  ||d||  lg(rg) alpha_du alpha_pr  ls
 120r-9.8367965e+03 1.52e-04 1.00e+03  -3.9 0.00e+00    -  0.00e+00 2.83e-09R  2
 121r-9.8367998e+03 5.62e-06 2.01e+03  -3.9 4.11e+02    -  8.11e-02 1.00e-03f  1
 122 -9.8368195e+03 5.63e-06 5.35e+02  -6.0 4.14e+03    -  3.30e-01 3.01e-05f  1
 123r-9.8368195e+03 5.63e-06 9.99e+02  -5.4 0.00e+00    -  0.00e+00 4.04e-07R  6
 124r-9.8368195e+03 5.62e-06 9.98e+02  -5.4 1.89e+00    -  9.99e-01 1.00e-03f  1
 125r-9.8368195e+03 5.62e-06 9.99e+02  -5.5 0.00e+00    -  0.00e+00 2.74e-08R  2
 126r-9.8368195e+03 5.60e-06 9.95e+02  -5.5 5.91e-01    -  9.94e-01 3.72e-03f  1
 127 -9.8368197e+03 5.60e-06 2.02e+04  -6.0 2.06e+01    -  7.72e-01 3.84e-05f  1
 128 -9.8368184e+03 5.60e-06 2.02e+04  -6.0 6.78e+02    -  6.06e-04 6.06e-04s 12
 129r-9.8368184e+03 5.60e-06 1.00e+03  -5.5 0.00e+00    -  0.00e+00 0.00e+00R  1
iter    objective    inf_pr   inf_du lg(mu)  ||d||  lg(rg) alpha_du alpha_pr  ls
 130r-9.8368184e+03 5.59e-06 9.98e+02  -5.5 6.35e-01    -  9.95e-01 1.00e-03f  1
 131r-9.8367154e+03 1.24e-04 6.89e+00  -5.5 2.45e+00    -  9.42e-01 1.00e+00f  1
 132r-9.8361450e+03 8.34e-04 2.29e+00  -5.5 6.36e+00    -  9.80e-01 1.00e+00h  1
 133r-9.8358742e+03 1.13e-05 5.91e-04  -5.5 7.42e-01    -  1.00e+00 1.00e+00h  1
 134r-9.8358808e+03 3.31e-06 2.11e-07  -5.5 2.24e-02    -  1.00e+00 1.00e+00h  1
 135 -9.8358884e+03 3.30e-06 1.07e+02  -6.0 5.24e+01    -  4.73e-01 1.04e-03f  1
 136 -9.8358901e+03 1.40e-05 2.92e+04  -6.0 7.07e+02    -  5.52e-01 1.08e-03f  1
 137r-9.8358901e+03 1.40e-05 1.00e+03  -5.0 0.00e+00    -  0.00e+00 1.55e-08R  2
 138r-9.8358901e+03 3.30e-06 9.98e+02  -5.0 2.51e+00    -  2.86e-01 1.00e-03f  1
 139 -9.8358901e+03 3.30e-06 3.13e+05  -6.0 9.20e+01    -  7.99e-02 1.28e-07h  2
iter    objective    inf_pr   inf_du lg(mu)  ||d||  lg(rg) alpha_du alpha_pr  ls
 140r-9.8358901e+03 3.30e-06 1.00e+03  -5.5 0.00e+00    -  0.00e+00 4.64e-07R 14
 141r-9.8358901e+03 3.30e-06 9.87e+02  -5.5 1.33e-02    -  1.00e+00 1.15e-02f  1
 142 -9.8358901e+03 3.30e-06 2.54e+04  -6.0 3.97e+02    -  2.04e-02 1.27e-07f  2
 143r-9.8358901e+03 3.30e-06 1.00e+03  -5.5 0.00e+00    -  0.00e+00 4.35e-07R 12
 144r-9.8358901e+03 3.30e-06 9.52e+02  -5.5 1.73e-02    -  1.00e+00 4.73e-02f  1
 145 -9.8358901e+03 3.30e-06 3.84e+04  -6.0 1.25e+02    -  8.14e-01 3.02e-07f  2
 146r-9.8358901e+03 3.30e-06 1.00e+03  -5.5 0.00e+00    -  0.00e+00 2.80e-07R 16
 147r-9.8358899e+03 3.30e-06 7.91e+02  -5.5 1.83e-02    -  1.00e+00 2.08e-01f  1
 148 -9.8358900e+03 3.30e-06 1.28e+04  -6.0 8.71e+02    -  7.06e-01 2.28e-06f  1
 149r-9.8358900e+03 3.30e-06 1.00e+03  -5.5 0.00e+00    -  0.00e+00 4.75e-07R 14
iter    objective    inf_pr   inf_du lg(mu)  ||d||  lg(rg) alpha_du alpha_pr  ls
 150r-9.8358893e+03 3.30e-06 2.04e-01  -5.5 2.43e-02    -  1.00e+00 1.00e+00f  1
 151 -9.8358895e+03 3.30e-06 7.10e+02  -6.0 1.10e+03    -  4.28e-01 9.43e-06f  1
 152 -9.8358895e+03 3.30e-06 1.36e+04  -6.0 7.07e+02    -  5.52e-01 2.21e-06f  2
 153r-9.8358895e+03 3.30e-06 1.00e+03  -5.5 0.00e+00    -  0.00e+00 3.08e-07R  6
 154r-9.8358893e+03 3.30e-06 5.37e+02  -5.5 8.17e-03    -  1.00e+00 4.63e-01f  1
 155 -9.8358893e+03 3.30e-06 4.09e+02  -6.0 4.94e+01    -  1.17e-01 4.77e-06f  1
 156 -9.8358893e+03 3.30e-06 1.48e+04  -6.0 7.06e+02    -  7.30e-01 2.34e-06f  2
 157 -9.8358892e+03 3.30e-06 2.46e+05  -6.0 5.85e+03    -  1.37e-03 2.32e-06h  2
 158 -9.8358346e+03 1.36e-03 2.46e+05  -6.0 1.18e+04    -  6.87e-04 6.87e-04s 19
 159r-9.8358346e+03 1.36e-03 1.00e+03  -3.0 0.00e+00    -  0.00e+00 0.00e+00R  1
iter    objective    inf_pr   inf_du lg(mu)  ||d||  lg(rg) alpha_du alpha_pr  ls
 160r-9.8358351e+03 1.12e-04 9.94e+02  -3.0 7.71e+01    -  5.58e-03 1.00e-03f  1
 161r-9.8358514e+03 9.44e-04 4.75e+03  -3.0 6.93e+01    -  4.81e-03 3.44e-02f  1
 162r-9.8358561e+03 1.00e-03 2.06e+04  -3.0 5.26e+01    -  1.46e-01 1.40e-02f  1
 163r-9.8358934e+03 9.50e-03 8.88e+03  -3.0 3.22e+01    -  1.83e-01 2.32e-01f  1
 164r-9.8357794e+03 5.36e-02 1.91e+04  -3.0 1.59e+01    -  2.75e-01 9.35e-01f  1
 165r-9.8356821e+03 9.55e-03 2.78e+03  -3.0 3.31e+00    -  9.06e-01 8.16e-01f  1
 166r-9.8343000e+03 1.37e-03 2.36e+02  -3.0 8.16e+00    -  8.57e-01 1.00e+00f  1
 167r-9.8307891e+03 1.09e-02 2.36e+02  -3.0 2.30e+01    -  9.15e-01 1.00e+00h  1
 168r-9.8323912e+03 1.04e+00 6.17e+01  -3.0 2.08e+02    -  1.00e+00 1.00e+00h  1
 169r-9.8316079e+03 2.32e-01 2.14e+01  -3.0 9.80e+01    -  1.00e+00 1.00e+00h  1
iter    objective    inf_pr   inf_du lg(mu)  ||d||  lg(rg) alpha_du alpha_pr  ls
 170r-9.8312151e+03 5.53e-02 4.26e+00  -3.0 4.79e+01    -  1.00e+00 1.00e+00h  1
 171r-9.8310356e+03 1.15e-02 8.51e-01  -3.0 2.19e+01    -  1.00e+00 1.00e+00h  1
 172r-9.8309716e+03 1.46e-03 1.06e-01  -3.0 7.80e+00    -  1.00e+00 1.00e+00h  1
 173r-9.8309607e+03 1.14e-04 3.11e-03  -3.0 1.33e+00    -  1.00e+00 1.00e+00h  1
 174r-9.8324820e+03 1.16e-02 2.88e+03  -4.7 2.46e+01    -  6.97e-01 4.32e-01f  1
 175r-9.8328024e+03 1.73e-02 8.31e+03  -4.7 5.43e+00    -  7.07e-01 3.07e-01f  1
 176r-9.8332806e+03 1.94e-02 9.77e+03  -4.7 1.30e+01    -  6.84e-01 3.74e-01f  1
 177r-9.8338651e+03 1.18e-02 1.06e+04  -4.7 3.63e+01    -  8.31e-01 6.16e-01f  1
 178r-9.8342045e+03 5.43e-03 5.13e+03  -4.7 1.51e+01    -  1.00e+00 7.25e-01f  1
 179r-9.8343802e+03 2.80e-04 3.87e-01  -4.7 3.31e+00    -  1.00e+00 1.00e+00f  1
iter    objective    inf_pr   inf_du lg(mu)  ||d||  lg(rg) alpha_du alpha_pr  ls
 180r-9.8343975e+03 1.18e-05 2.98e-03  -4.7 7.56e-01    -  1.00e+00 1.00e+00h  1
 181r-9.8343975e+03 3.34e-06 9.13e-06  -4.7 2.62e-02    -  1.00e+00 1.00e+00h  1
 182r-9.8350047e+03 1.31e-04 8.90e+02  -7.0 4.61e+00    -  7.70e-01 5.47e-01f  1
 183r-9.8350431e+03 1.25e-03 6.78e+02  -7.0 1.42e+01    -  8.28e-01 5.40e-01f  1
 184r-9.8352888e+03 8.47e-04 2.80e+02  -7.0 6.84e+00    -  8.13e-01 6.32e-01f  1
 185r-9.8353832e+03 5.71e-04 4.16e+02  -7.0 3.29e+00    -  8.39e-01 3.46e-01f  1
 186r-9.8355230e+03 1.98e-04 1.79e+02  -7.0 2.38e+00    -  1.00e+00 7.04e-01f  1
 187r-9.8355724e+03 5.11e-05 1.52e+02  -7.0 8.08e-01    -  1.00e+00 7.56e-01f  1
 188r-9.8355886e+03 3.29e-06 2.52e-03  -7.0 2.17e-01    -  1.00e+00 1.00e+00f  1
 189 -9.8355903e+03 3.29e-06 1.38e+03  -6.0 4.35e+04    -  2.97e-02 5.31e-06f  1
iter    objective    inf_pr   inf_du lg(mu)  ||d||  lg(rg) alpha_du alpha_pr  ls
 190r-9.8355903e+03 3.29e-06 1.00e+03  -5.5 0.00e+00    -  0.00e+00 2.51e-07R 20
 191r-9.8355903e+03 3.29e-06 9.96e+02  -5.5 3.96e-01    -  1.80e-01 3.22e-03f  1
 192 -9.8355903e+03 3.29e-06 3.73e+05  -6.0 1.82e+03    -  1.53e-02 4.13e-08h  1
 193 -9.8355903e+03 3.29e-06 5.13e+05  -6.0 1.04e+04    -  2.76e-03 9.85e-07h 13
 194r-9.8355903e+03 3.29e-06 1.00e+03  -5.5 0.00e+00    -  0.00e+00 3.43e-07R 14
 195r-9.8355902e+03 3.29e-06 9.86e+02  -5.5 9.51e-02    -  2.65e-02 1.35e-02f  1
 196 -9.8355902e+03 3.29e-06 1.49e+05  -6.0 6.73e+02    -  4.22e-02 1.46e-07h  1
 197r-9.8355902e+03 3.29e-06 1.00e+03  -5.5 0.00e+00    -  0.00e+00 4.90e-07R 14
 198r-9.8355902e+03 3.29e-06 9.41e+02  -5.5 8.57e-02    -  1.44e-01 5.80e-02f  1
 199 -9.8355902e+03 3.29e-06 2.01e+05  -6.0 2.47e+01    -  7.76e-01 2.93e-07f  2
iter    objective    inf_pr   inf_du lg(mu)  ||d||  lg(rg) alpha_du alpha_pr  ls
 200r-9.8355902e+03 3.29e-06 1.00e+03  -5.5 0.00e+00    -  0.00e+00 2.75e-07R 17
 201r-9.8355901e+03 3.29e-06 7.39e+02  -5.5 4.08e-02    -  4.99e-01 2.60e-01f  1
 202 -9.8355902e+03 3.29e-06 5.76e+04  -6.0 1.72e+02    -  8.11e-01 2.88e-06f  1
 203r-9.8355902e+03 3.29e-06 1.00e+03  -5.5 0.00e+00    -  0.00e+00 3.71e-07R 18
 204r-9.8355899e+03 3.29e-06 2.92e+02  -5.5 3.44e-02    -  7.05e-01 1.00e+00f  1
 205 -9.8355900e+03 3.29e-06 4.15e+03  -6.0 1.29e+03    -  6.20e-01 9.00e-06f  1
 206r-9.8355900e+03 3.29e-06 1.00e+03  -5.5 0.00e+00    -  0.00e+00 4.96e-07R 17
 207r-9.8355900e+03 3.29e-06 8.81e+02  -5.5 4.31e-02    -  8.69e-01 1.19e-01f  1
 208 -9.8355900e+03 3.29e-06 3.01e+03  -6.0 3.23e+03    -  4.23e-01 9.15e-07f  1
 209r-9.8355900e+03 3.29e-06 1.00e+03  -5.5 0.00e+00    -  0.00e+00 4.64e-07R 14
iter    objective    inf_pr   inf_du lg(mu)  ||d||  lg(rg) alpha_du alpha_pr  ls
 210r-9.8355898e+03 3.29e-06 4.06e+02  -5.5 2.43e-02    -  8.89e-01 5.93e-01f  1
 211r-9.8355868e+03 3.29e-06 6.27e-01  -5.5 9.10e-02    -  9.99e-01 1.00e+00f  1
 212r-9.8349762e+03 7.56e-04 2.83e-02  -5.5 6.05e+00    -  1.00e+00 1.00e+00h  1
 213r-9.8348561e+03 4.03e-06 2.35e-04  -5.5 4.42e-01    -  1.00e+00 1.00e+00h  1
Restoration phase converged to a feasible point that is
unacceptable to the filter for the original problem.
Restoration phase in the restoration phase failed.

Number of Iterations....: 213

                                   (scaled)                 (unscaled)
Objective...............:  -9.8348581049727945e+03   -9.8348581049727945e+03
Dual infeasibility......:   1.0000000227389079e+00    1.0000000227389079e+00
Constraint violation....:   3.3008643697086996e-06    3.3008643697086996e-06
Complementarity.........:   3.2940575937247618e-06    3.2940575937247618e-06
Overall NLP error.......:   1.0000000227389079e+00    1.0000000227389079e+00


Number of objective function evaluations             = 588
Number of objective gradient evaluations             = 135
Number of equality constraint evaluations            = 588
Number of inequality constraint evaluations          = 588
Number of equality constraint Jacobian evaluations   = 248
Number of inequality constraint Jacobian evaluations = 248
Number of Lagrangian Hessian evaluations             = 214
Total CPU secs in IPOPT (w/o function evaluations)   =    107.761
Total CPU secs in NLP function evaluations           =      7.673

EXIT: Restoration Failed!
